ilp_joint/output/friction_ilp.lp
Maximize
  2.5997267234443839e-04 Z_257_0_0 + 0.00262295462670647 Z_257_0_1
   + 0.7727067294046096 Z_257_0_2 + 0.00196173842981222 Z_257_0_3
   + 0.1224486048665273 Z_257_0_4
Subject To
 constraint1_2570: Z_257_0_0 + Z_257_0_1 + Z_257_0_2 + Z_257_0_3
   + Z_257_0_4 <= 1
 constraint2_2570: Z_257_0_0 <= 1
 constraint2_2571: Z_257_0_1 <= 1
 constraint2_2572: Z_257_0_2 <= 1
 constraint2_2573: Z_257_0_3 <= 1
Bounds
Binaries
 Z_257_0_0 Z_257_0_1 Z_257_0_2 Z_257_0_3 Z_257_0_4
End
