ilp_joint/output/friction_ilp.sol
# Solution for model friction_srl_ilp
# Objective value = 7.7270672940460960e-01
Z_257_0_0 0
Z_257_0_1 0
Z_257_0_2 1
Z_257_0_3 0
Z_257_0_4 0
